%%%mzn-stat: initTime=0.06796824
%%%mzn-stat: objective=179
%%%mzn-stat: nodes=2285
%%%mzn-stat: restarts=0
%%%mzn-stat: peakDepth=1199
%%%mzn-stat: solveTime=0.841886065
%%%mzn-stat: variables=3316
%%%mzn-stat: propagators=2878
%%%mzn-stat: failures=280
%%%mzn-stat: propagations=277975
%%%mzn-stat: nogoods=280
%%%mzn-stat: AverageConflictSize=4.089285714285714
%%%mzn-stat: NumUnitNogoodsLearned=178
%%%mzn-stat: AverageLearnedNogoodLength=75.12857142857143
%%%mzn-stat: AverageBacktrackAmount=0
%%%mzn-stat: AverageLbd=31.1
%%%mzn-stat-end
maxleg = 179;
succ = array1d(1..150,[149, 15, 63, 94, 120, 79, 109, 21, 57, 132, 119, 36, 111, 148, 128, 13, 118, 14, 137, 117, 25, 71, 59, 88, 90, 106, 101, 61, 9, 33, 43, 37, 34, 130, 114, 49, 83, 44, 54, 136, 145, 89, 75, 65, 20, 131, 78, 58, 76, 108, 91, 4, 39, 125, 70, 93, 92, 135, 85, 53, 51, 72, 1, 142, 24, 103, 129, 121, 29, 102, 35, 11, 82, 56, 138, 55, 62, 38, 42, 31, 60, 40, 81, 139, 27, 19, 122, 96, 126, 69, 46, 18, 16, 8, 112, 52, 127, 134, 47, 104, 87, 73, 105, 123, 143, 12, 99, 80, 115, 41, 141, 64, 110, 84, 23, 2, 66, 100, 48, 124, 113, 45, 6, 28, 67, 32, 107, 150, 97, 50, 7, 68, 30, 95, 17, 116, 144, 5, 3, 77, 140, 146, 98, 133, 22, 10, 74, 86, 26, 147]);
% time elapsed: 2.76 s
----------
==========
% time elapsed: 2.77 s
%%%mzn-stat: initTime=0.06796824
%%%mzn-stat: objective=179
%%%mzn-stat: nodes=2285
%%%mzn-stat: restarts=0
%%%mzn-stat: peakDepth=1199
%%%mzn-stat: solveTime=0.841893035
%%%mzn-stat: variables=3316
%%%mzn-stat: propagators=2878
%%%mzn-stat: failures=280
%%%mzn-stat: propagations=277975
%%%mzn-stat: nogoods=280
%%%mzn-stat: AverageConflictSize=4.089285714285714
%%%mzn-stat: NumUnitNogoodsLearned=178
%%%mzn-stat: AverageLearnedNogoodLength=75.12857142857143
%%%mzn-stat: AverageBacktrackAmount=0
%%%mzn-stat: AverageLbd=31.1
%%%mzn-stat-end
